20
1 438 307
2 319 96
3 43 183
4 122 253
5 58 235
6 153 78
7 79 349
8 96 223
9 277 65
10 222 253
11 88 10
12 375 403
13 171 382
14 105 135
15 153 275
16 429 43
17 446 331
18 436 491
19 424 480
20 430 18
